p cnf 900 2439
a 1 2 3 4 5 6 7 8 9 10 11 12 13 14 15 16 17 18 19 20 21 22 23 24 25 26 27 28 29 30 31 32 33 34 35 36 37 38 39 40 41 42 43 44 45 46 47 48 49 50 51 52 53 54 55 56 57 58 59 60 61 62 63 64 65 66 67 68 69 70 71 72 73 74 75 76 77 78 79 80 81 82 83 84 85 86 87 88 89 90 91 92 93 94 95 96 0
e 97 98 99 100 101 102 103 104 105 106 107 108 109 110 111 112 113 114 115 116 117 118 119 120 121 122 123 124 125 126 127 128 129 130 131 132 133 134 135 136 137 138 139 140 141 142 143 144 145 146 147 148 149 150 151 152 153 154 155 156 157 158 159 160 161 162 163 164 165 166 167 168 169 170 171 172 173 174 175 176 177 178 179 180 181 182 183 184 185 186 187 188 189 190 191 192 193 194 195 196 197 198 199 200 201 202 203 204 205 206 207 208 209 210 211 212 213 214 215 216 217 218 219 220 221 222 223 224 225 226 227 228 229 230 231 232 233 234 235 236 237 238 239 240 241 242 243 244 245 246 247 248 249 250 251 252 253 254 255 256 257 258 259 260 261 262 263 264 265 266 267 268 269 270 271 272 273 274 275 276 277 278 279 280 281 282 283 284 285 286 287 288 289 290 291 292 293 294 295 296 297 298 299 300 301 302 303 304 305 306 307 308 309 310 311 312 313 314 315 316 317 318 319 320 321 322 323 324 325 326 327 328 329 330 331 332 333 334 335 336 337 338 339 340 341 342 343 344 345 346 347 348 349 350 351 352 353 354 355 356 357 358 359 360 361 362 363 364 365 366 367 368 369 370 371 372 373 374 375 376 377 378 379 380 381 382 383 384 385 386 387 388 389 390 391 392 393 394 395 396 397 398 399 400 401 402 403 404 405 406 407 408 409 410 411 412 413 414 415 416 417 418 419 420 421 422 423 424 425 426 427 428 429 430 431 432 433 434 435 436 437 438 439 440 441 442 443 444 445 446 447 448 449 450 451 452 453 454 455 456 457 458 459 460 461 462 463 464 465 466 467 468 469 470 471 472 473 474 475 476 477 478 479 480 481 482 483 484 485 486 487 488 489 490 491 492 493 494 495 496 497 498 499 500 501 502 503 504 505 506 507 508 509 510 511 512 513 514 515 516 517 518 519 520 521 522 523 524 525 526 527 528 529 530 531 532 533 534 535 536 537 538 539 540 541 542 543 544 545 546 547 548 549 550 551 552 553 554 555 556 557 558 559 560 561 562 563 564 565 566 567 568 569 570 571 572 573 574 575 576 577 578 579 580 581 582 583 584 585 586 587 588 589 590 591 592 593 594 595 596 597 598 599 600 601 602 603 604 605 606 607 608 609 610 611 612 613 614 615 616 617 618 619 620 621 622 623 624 625 626 627 628 629 630 631 632 633 634 635 636 637 638 639 640 641 642 643 644 645 646 647 648 649 650 651 652 653 654 655 656 657 658 659 660 661 662 663 664 665 666 667 668 669 670 671 672 673 674 675 676 677 678 679 680 681 682 683 684 685 686 687 688 689 690 691 692 693 694 695 696 697 698 699 700 701 702 703 704 705 706 707 708 709 710 711 712 713 714 715 716 717 718 719 720 721 722 723 724 725 726 727 728 729 730 731 732 733 734 735 736 737 738 739 740 741 742 743 744 745 746 747 748 749 750 751 752 753 754 755 756 757 758 759 760 761 762 763 764 765 766 767 768 769 770 771 772 773 774 775 776 777 778 779 780 781 782 783 784 785 786 787 788 789 790 791 792 793 794 795 796 797 798 799 800 801 802 803 804 805 806 807 808 809 810 811 812 813 814 815 816 817 818 819 820 821 822 823 824 825 826 827 828 829 830 831 832 833 834 835 836 837 838 839 840 841 842 843 844 845 846 847 848 849 850 851 852 853 854 855 856 857 858 859 860 861 862 863 864 865 866 867 868 869 870 871 872 873 874 875 876 877 878 879 880 881 882 883 884 885 886 887 888 889 890 891 892 893 894 895 896 897 898 0
113 97 0
-113 -97 0
114 98 -113 0
-114 113 0
-114 -98 0
115 -114 0
-115 114 0
116 99 -115 0
-116 115 0
-116 -99 0
117 -116 0
-117 116 0
118 100 -117 0
-118 117 0
-118 -100 0
119 -118 0
-119 118 0
120 101 -119 0
-120 119 0
-120 -101 0
121 -120 0
-121 120 0
122 102 -121 0
-122 121 0
-122 -102 0
123 -122 0
-123 122 0
124 103 -123 0
-124 123 0
-124 -103 0
125 -124 0
-125 124 0
126 104 -125 0
-126 125 0
-126 -104 0
127 -126 0
-127 126 0
128 105 -127 0
-128 127 0
-128 -105 0
129 -128 0
-129 128 0
130 106 -129 0
-130 129 0
-130 -106 0
131 -130 0
-131 130 0
132 107 -131 0
-132 131 0
-132 -107 0
133 -132 0
-133 132 0
134 108 -133 0
-134 133 0
-134 -108 0
135 -134 0
-135 134 0
136 109 -135 0
-136 135 0
-136 -109 0
137 -136 0
-137 136 0
138 110 -137 0
-138 137 0
-138 -110 0
139 -138 0
-139 138 0
140 111 -139 0
-140 139 0
-140 -111 0
141 -140 0
-141 140 0
142 112 -141 0
-142 141 0
-142 -112 0
143 -142 0
-143 142 0
144 -112 -143 0
144 112 143 0
-144 -112 143 0
-144 112 -143 0
146 0
-146 -144 -145 0
163 97 -147 0
163 -97 147 0
-163 97 147 0
-163 -97 -147 0
164 -97 -147 0
-164 147 0
-164 97 0
165 -164 0
-165 164 0
166 98 -148 0
166 -98 148 0
-166 98 148 0
-166 -98 -148 0
167 -165 166 0
167 165 -166 0
-167 165 166 0
-167 -165 -166 0
168 -98 -148 0
-168 148 0
-168 98 0
169 -98 -165 0
-169 165 0
-169 98 0
170 -148 -165 0
-170 165 0
-170 148 0
171 -170 0
171 -169 0
171 -168 0
-171 168 169 170 0
172 99 -149 0
172 -99 149 0
-172 99 149 0
-172 -99 -149 0
173 -171 172 0
173 171 -172 0
-173 171 172 0
-173 -171 -172 0
174 -99 -149 0
-174 149 0
-174 99 0
175 -99 -171 0
-175 171 0
-175 99 0
176 -149 -171 0
-176 171 0
-176 149 0
177 -176 0
177 -175 0
177 -174 0
-177 174 175 176 0
178 100 -150 0
178 -100 150 0
-178 100 150 0
-178 -100 -150 0
179 -177 178 0
179 177 -178 0
-179 177 178 0
-179 -177 -178 0
180 -100 -150 0
-180 150 0
-180 100 0
181 -100 -177 0
-181 177 0
-181 100 0
182 -150 -177 0
-182 177 0
-182 150 0
183 -182 0
183 -181 0
183 -180 0
-183 180 181 182 0
184 101 -151 0
184 -101 151 0
-184 101 151 0
-184 -101 -151 0
185 -183 184 0
185 183 -184 0
-185 183 184 0
-185 -183 -184 0
186 -101 -151 0
-186 151 0
-186 101 0
187 -101 -183 0
-187 183 0
-187 101 0
188 -151 -183 0
-188 183 0
-188 151 0
189 -188 0
189 -187 0
189 -186 0
-189 186 187 188 0
190 102 -152 0
190 -102 152 0
-190 102 152 0
-190 -102 -152 0
191 -189 190 0
191 189 -190 0
-191 189 190 0
-191 -189 -190 0
192 -102 -152 0
-192 152 0
-192 102 0
193 -102 -189 0
-193 189 0
-193 102 0
194 -152 -189 0
-194 189 0
-194 152 0
195 -194 0
195 -193 0
195 -192 0
-195 192 193 194 0
196 103 -153 0
196 -103 153 0
-196 103 153 0
-196 -103 -153 0
197 -195 196 0
197 195 -196 0
-197 195 196 0
-197 -195 -196 0
198 -103 -153 0
-198 153 0
-198 103 0
199 -103 -195 0
-199 195 0
-199 103 0
200 -153 -195 0
-200 195 0
-200 153 0
201 -200 0
201 -199 0
201 -198 0
-201 198 199 200 0
202 104 -154 0
202 -104 154 0
-202 104 154 0
-202 -104 -154 0
203 -201 202 0
203 201 -202 0
-203 201 202 0
-203 -201 -202 0
204 -104 -154 0
-204 154 0
-204 104 0
205 -104 -201 0
-205 201 0
-205 104 0
206 -154 -201 0
-206 201 0
-206 154 0
207 -206 0
207 -205 0
207 -204 0
-207 204 205 206 0
208 105 -155 0
208 -105 155 0
-208 105 155 0
-208 -105 -155 0
209 -207 208 0
209 207 -208 0
-209 207 208 0
-209 -207 -208 0
210 -105 -155 0
-210 155 0
-210 105 0
211 -105 -207 0
-211 207 0
-211 105 0
212 -155 -207 0
-212 207 0
-212 155 0
213 -212 0
213 -211 0
213 -210 0
-213 210 211 212 0
214 106 -156 0
214 -106 156 0
-214 106 156 0
-214 -106 -156 0
215 -213 214 0
215 213 -214 0
-215 213 214 0
-215 -213 -214 0
216 -106 -156 0
-216 156 0
-216 106 0
217 -106 -213 0
-217 213 0
-217 106 0
218 -156 -213 0
-218 213 0
-218 156 0
219 -218 0
219 -217 0
219 -216 0
-219 216 217 218 0
220 107 -157 0
220 -107 157 0
-220 107 157 0
-220 -107 -157 0
221 -219 220 0
221 219 -220 0
-221 219 220 0
-221 -219 -220 0
222 -107 -157 0
-222 157 0
-222 107 0
223 -107 -219 0
-223 219 0
-223 107 0
224 -157 -219 0
-224 219 0
-224 157 0
225 -224 0
225 -223 0
225 -222 0
-225 222 223 224 0
226 108 -158 0
226 -108 158 0
-226 108 158 0
-226 -108 -158 0
227 -225 226 0
227 225 -226 0
-227 225 226 0
-227 -225 -226 0
228 -108 -158 0
-228 158 0
-228 108 0
229 -108 -225 0
-229 225 0
-229 108 0
230 -158 -225 0
-230 225 0
-230 158 0
231 -230 0
231 -229 0
231 -228 0
-231 228 229 230 0
232 109 -159 0
232 -109 159 0
-232 109 159 0
-232 -109 -159 0
233 -231 232 0
233 231 -232 0
-233 231 232 0
-233 -231 -232 0
234 -109 -159 0
-234 159 0
-234 109 0
235 -109 -231 0
-235 231 0
-235 109 0
236 -159 -231 0
-236 231 0
-236 159 0
237 -236 0
237 -235 0
237 -234 0
-237 234 235 236 0
238 110 -160 0
238 -110 160 0
-238 110 160 0
-238 -110 -160 0
239 -237 238 0
239 237 -238 0
-239 237 238 0
-239 -237 -238 0
240 -110 -160 0
-240 160 0
-240 110 0
241 -110 -237 0
-241 237 0
-241 110 0
242 -160 -237 0
-242 237 0
-242 160 0
243 -242 0
243 -241 0
243 -240 0
-243 240 241 242 0
244 111 -161 0
244 -111 161 0
-244 111 161 0
-244 -111 -161 0
245 -243 244 0
245 243 -244 0
-245 243 244 0
-245 -243 -244 0
246 -111 -161 0
-246 161 0
-246 111 0
247 -111 -243 0
-247 243 0
-247 111 0
248 -161 -243 0
-248 243 0
-248 161 0
249 -248 0
249 -247 0
249 -246 0
-249 246 247 248 0
250 112 -162 0
250 -112 162 0
-250 112 162 0
-250 -112 -162 0
251 -249 250 0
251 249 -250 0
-251 249 250 0
-251 -249 -250 0
252 -112 -162 0
-252 162 0
-252 112 0
253 -112 -249 0
-253 249 0
-253 112 0
254 -162 -249 0
-254 249 0
-254 162 0
255 -254 0
255 -253 0
255 -252 0
-255 252 253 254 0
256 163 0
-256 -163 0
257 167 -256 0
-257 256 0
-257 -167 0
258 -257 0
-258 257 0
259 173 -258 0
-259 258 0
-259 -173 0
260 -259 0
-260 259 0
261 179 -260 0
-261 260 0
-261 -179 0
262 -261 0
-262 261 0
263 185 -262 0
-263 262 0
-263 -185 0
264 -263 0
-264 263 0
265 191 -264 0
-265 264 0
-265 -191 0
266 -265 0
-266 265 0
267 197 -266 0
-267 266 0
-267 -197 0
268 -267 0
-268 267 0
269 203 -268 0
-269 268 0
-269 -203 0
270 -269 0
-270 269 0
271 209 -270 0
-271 270 0
-271 -209 0
272 -271 0
-272 271 0
273 215 -272 0
-273 272 0
-273 -215 0
274 -273 0
-274 273 0
275 221 -274 0
-275 274 0
-275 -221 0
276 -275 0
-276 275 0
277 227 -276 0
-277 276 0
-277 -227 0
278 -277 0
-278 277 0
279 233 -278 0
-279 278 0
-279 -233 0
280 -279 0
-280 279 0
281 239 -280 0
-281 280 0
-281 -239 0
282 -281 0
-282 281 0
283 245 -282 0
-283 282 0
-283 -245 0
284 -283 0
-284 283 0
285 251 -284 0
-285 284 0
-285 -251 0
286 -285 0
-286 285 0
287 -251 -286 0
287 251 286 0
-287 -251 286 0
-287 251 -286 0
289 0
-289 -287 -288 0
290 1 -97 0
290 -1 97 0
-290 1 97 0
-290 -1 -97 0
291 2 -98 0
291 -2 98 0
-291 2 98 0
-291 -2 -98 0
292 3 -99 0
292 -3 99 0
-292 3 99 0
-292 -3 -99 0
293 4 -100 0
293 -4 100 0
-293 4 100 0
-293 -4 -100 0
294 5 -101 0
294 -5 101 0
-294 5 101 0
-294 -5 -101 0
295 6 -102 0
295 -6 102 0
-295 6 102 0
-295 -6 -102 0
296 7 -103 0
296 -7 103 0
-296 7 103 0
-296 -7 -103 0
297 8 -104 0
297 -8 104 0
-297 8 104 0
-297 -8 -104 0
298 9 -105 0
298 -9 105 0
-298 9 105 0
-298 -9 -105 0
299 10 -106 0
299 -10 106 0
-299 10 106 0
-299 -10 -106 0
300 11 -107 0
300 -11 107 0
-300 11 107 0
-300 -11 -107 0
301 12 -108 0
301 -12 108 0
-301 12 108 0
-301 -12 -108 0
302 13 -109 0
302 -13 109 0
-302 13 109 0
-302 -13 -109 0
303 14 -110 0
303 -14 110 0
-303 14 110 0
-303 -14 -110 0
304 15 -111 0
304 -15 111 0
-304 15 111 0
-304 -15 -111 0
305 16 -112 0
305 -16 112 0
-305 16 112 0
-305 -16 -112 0
306 290 291 292 293 294 295 296 297 298 299 300 301 302 303 304 305 0
-306 -305 0
-306 -304 0
-306 -303 0
-306 -302 0
-306 -301 0
-306 -300 0
-306 -299 0
-306 -298 0
-306 -297 0
-306 -296 0
-306 -295 0
-306 -294 0
-306 -293 0
-306 -292 0
-306 -291 0
-306 -290 0
307 49 -163 0
307 -49 163 0
-307 49 163 0
-307 -49 -163 0
308 50 -167 0
308 -50 167 0
-308 50 167 0
-308 -50 -167 0
309 51 -173 0
309 -51 173 0
-309 51 173 0
-309 -51 -173 0
310 52 -179 0
310 -52 179 0
-310 52 179 0
-310 -52 -179 0
311 53 -185 0
311 -53 185 0
-311 53 185 0
-311 -53 -185 0
312 54 -191 0
312 -54 191 0
-312 54 191 0
-312 -54 -191 0
313 55 -197 0
313 -55 197 0
-313 55 197 0
-313 -55 -197 0
314 56 -203 0
314 -56 203 0
-314 56 203 0
-314 -56 -203 0
315 57 -209 0
315 -57 209 0
-315 57 209 0
-315 -57 -209 0
316 58 -215 0
316 -58 215 0
-316 58 215 0
-316 -58 -215 0
317 59 -221 0
317 -59 221 0
-317 59 221 0
-317 -59 -221 0
318 60 -227 0
318 -60 227 0
-318 60 227 0
-318 -60 -227 0
319 61 -233 0
319 -61 233 0
-319 61 233 0
-319 -61 -233 0
320 62 -239 0
320 -62 239 0
-320 62 239 0
-320 -62 -239 0
321 63 -245 0
321 -63 245 0
-321 63 245 0
-321 -63 -245 0
322 64 -251 0
322 -64 251 0
-322 64 251 0
-322 -64 -251 0
323 307 308 309 310 311 312 313 314 315 316 317 318 319 320 321 322 0
-323 -322 0
-323 -321 0
-323 -320 0
-323 -319 0
-323 -318 0
-323 -317 0
-323 -316 0
-323 -315 0
-323 -314 0
-323 -313 0
-323 -312 0
-323 -311 0
-323 -310 0
-323 -309 0
-323 -308 0
-323 -307 0
324 17 -147 0
324 -17 147 0
-324 17 147 0
-324 -17 -147 0
325 18 -148 0
325 -18 148 0
-325 18 148 0
-325 -18 -148 0
326 19 -149 0
326 -19 149 0
-326 19 149 0
-326 -19 -149 0
327 20 -150 0
327 -20 150 0
-327 20 150 0
-327 -20 -150 0
328 21 -151 0
328 -21 151 0
-328 21 151 0
-328 -21 -151 0
329 22 -152 0
329 -22 152 0
-329 22 152 0
-329 -22 -152 0
330 23 -153 0
330 -23 153 0
-330 23 153 0
-330 -23 -153 0
331 24 -154 0
331 -24 154 0
-331 24 154 0
-331 -24 -154 0
332 25 -155 0
332 -25 155 0
-332 25 155 0
-332 -25 -155 0
333 26 -156 0
333 -26 156 0
-333 26 156 0
-333 -26 -156 0
334 27 -157 0
334 -27 157 0
-334 27 157 0
-334 -27 -157 0
335 28 -158 0
335 -28 158 0
-335 28 158 0
-335 -28 -158 0
336 29 -159 0
336 -29 159 0
-336 29 159 0
-336 -29 -159 0
337 30 -160 0
337 -30 160 0
-337 30 160 0
-337 -30 -160 0
338 31 -161 0
338 -31 161 0
-338 31 161 0
-338 -31 -161 0
339 32 -162 0
339 -32 162 0
-339 32 162 0
-339 -32 -162 0
340 324 325 326 327 328 329 330 331 332 333 334 335 336 337 338 339 0
-340 -339 0
-340 -338 0
-340 -337 0
-340 -336 0
-340 -335 0
-340 -334 0
-340 -333 0
-340 -332 0
-340 -331 0
-340 -330 0
-340 -329 0
-340 -328 0
-340 -327 0
-340 -326 0
-340 -325 0
-340 -324 0
357 147 -341 0
357 -147 341 0
-357 147 341 0
-357 -147 -341 0
358 -147 -341 0
-358 341 0
-358 147 0
359 -358 0
-359 358 0
360 148 -342 0
360 -148 342 0
-360 148 342 0
-360 -148 -342 0
361 -359 360 0
361 359 -360 0
-361 359 360 0
-361 -359 -360 0
362 -148 -342 0
-362 342 0
-362 148 0
363 -148 -359 0
-363 359 0
-363 148 0
364 -342 -359 0
-364 359 0
-364 342 0
365 -364 0
365 -363 0
365 -362 0
-365 362 363 364 0
366 149 -343 0
366 -149 343 0
-366 149 343 0
-366 -149 -343 0
367 -365 366 0
367 365 -366 0
-367 365 366 0
-367 -365 -366 0
368 -149 -343 0
-368 343 0
-368 149 0
369 -149 -365 0
-369 365 0
-369 149 0
370 -343 -365 0
-370 365 0
-370 343 0
371 -370 0
371 -369 0
371 -368 0
-371 368 369 370 0
372 150 -344 0
372 -150 344 0
-372 150 344 0
-372 -150 -344 0
373 -371 372 0
373 371 -372 0
-373 371 372 0
-373 -371 -372 0
374 -150 -344 0
-374 344 0
-374 150 0
375 -150 -371 0
-375 371 0
-375 150 0
376 -344 -371 0
-376 371 0
-376 344 0
377 -376 0
377 -375 0
377 -374 0
-377 374 375 376 0
378 151 -345 0
378 -151 345 0
-378 151 345 0
-378 -151 -345 0
379 -377 378 0
379 377 -378 0
-379 377 378 0
-379 -377 -378 0
380 -151 -345 0
-380 345 0
-380 151 0
381 -151 -377 0
-381 377 0
-381 151 0
382 -345 -377 0
-382 377 0
-382 345 0
383 -382 0
383 -381 0
383 -380 0
-383 380 381 382 0
384 152 -346 0
384 -152 346 0
-384 152 346 0
-384 -152 -346 0
385 -383 384 0
385 383 -384 0
-385 383 384 0
-385 -383 -384 0
386 -152 -346 0
-386 346 0
-386 152 0
387 -152 -383 0
-387 383 0
-387 152 0
388 -346 -383 0
-388 383 0
-388 346 0
389 -388 0
389 -387 0
389 -386 0
-389 386 387 388 0
390 153 -347 0
390 -153 347 0
-390 153 347 0
-390 -153 -347 0
391 -389 390 0
391 389 -390 0
-391 389 390 0
-391 -389 -390 0
392 -153 -347 0
-392 347 0
-392 153 0
393 -153 -389 0
-393 389 0
-393 153 0
394 -347 -389 0
-394 389 0
-394 347 0
395 -394 0
395 -393 0
395 -392 0
-395 392 393 394 0
396 154 -348 0
396 -154 348 0
-396 154 348 0
-396 -154 -348 0
397 -395 396 0
397 395 -396 0
-397 395 396 0
-397 -395 -396 0
398 -154 -348 0
-398 348 0
-398 154 0
399 -154 -395 0
-399 395 0
-399 154 0
400 -348 -395 0
-400 395 0
-400 348 0
401 -400 0
401 -399 0
401 -398 0
-401 398 399 400 0
402 155 -349 0
402 -155 349 0
-402 155 349 0
-402 -155 -349 0
403 -401 402 0
403 401 -402 0
-403 401 402 0
-403 -401 -402 0
404 -155 -349 0
-404 349 0
-404 155 0
405 -155 -401 0
-405 401 0
-405 155 0
406 -349 -401 0
-406 401 0
-406 349 0
407 -406 0
407 -405 0
407 -404 0
-407 404 405 406 0
408 156 -350 0
408 -156 350 0
-408 156 350 0
-408 -156 -350 0
409 -407 408 0
409 407 -408 0
-409 407 408 0
-409 -407 -408 0
410 -156 -350 0
-410 350 0
-410 156 0
411 -156 -407 0
-411 407 0
-411 156 0
412 -350 -407 0
-412 407 0
-412 350 0
413 -412 0
413 -411 0
413 -410 0
-413 410 411 412 0
414 157 -351 0
414 -157 351 0
-414 157 351 0
-414 -157 -351 0
415 -413 414 0
415 413 -414 0
-415 413 414 0
-415 -413 -414 0
416 -157 -351 0
-416 351 0
-416 157 0
417 -157 -413 0
-417 413 0
-417 157 0
418 -351 -413 0
-418 413 0
-418 351 0
419 -418 0
419 -417 0
419 -416 0
-419 416 417 418 0
420 158 -352 0
420 -158 352 0
-420 158 352 0
-420 -158 -352 0
421 -419 420 0
421 419 -420 0
-421 419 420 0
-421 -419 -420 0
422 -158 -352 0
-422 352 0
-422 158 0
423 -158 -419 0
-423 419 0
-423 158 0
424 -352 -419 0
-424 419 0
-424 352 0
425 -424 0
425 -423 0
425 -422 0
-425 422 423 424 0
426 159 -353 0
426 -159 353 0
-426 159 353 0
-426 -159 -353 0
427 -425 426 0
427 425 -426 0
-427 425 426 0
-427 -425 -426 0
428 -159 -353 0
-428 353 0
-428 159 0
429 -159 -425 0
-429 425 0
-429 159 0
430 -353 -425 0
-430 425 0
-430 353 0
431 -430 0
431 -429 0
431 -428 0
-431 428 429 430 0
432 160 -354 0
432 -160 354 0
-432 160 354 0
-432 -160 -354 0
433 -431 432 0
433 431 -432 0
-433 431 432 0
-433 -431 -432 0
434 -160 -354 0
-434 354 0
-434 160 0
435 -160 -431 0
-435 431 0
-435 160 0
436 -354 -431 0
-436 431 0
-436 354 0
437 -436 0
437 -435 0
437 -434 0
-437 434 435 436 0
438 161 -355 0
438 -161 355 0
-438 161 355 0
-438 -161 -355 0
439 -437 438 0
439 437 -438 0
-439 437 438 0
-439 -437 -438 0
440 -161 -355 0
-440 355 0
-440 161 0
441 -161 -437 0
-441 437 0
-441 161 0
442 -355 -437 0
-442 437 0
-442 355 0
443 -442 0
443 -441 0
443 -440 0
-443 440 441 442 0
444 162 -356 0
444 -162 356 0
-444 162 356 0
-444 -162 -356 0
445 -443 444 0
445 443 -444 0
-445 443 444 0
-445 -443 -444 0
446 -162 -356 0
-446 356 0
-446 162 0
447 -162 -443 0
-447 443 0
-447 162 0
448 -356 -443 0
-448 443 0
-448 356 0
449 -448 0
449 -447 0
449 -446 0
-449 446 447 448 0
450 65 -357 0
450 -65 357 0
-450 65 357 0
-450 -65 -357 0
451 66 -361 0
451 -66 361 0
-451 66 361 0
-451 -66 -361 0
452 67 -367 0
452 -67 367 0
-452 67 367 0
-452 -67 -367 0
453 68 -373 0
453 -68 373 0
-453 68 373 0
-453 -68 -373 0
454 69 -379 0
454 -69 379 0
-454 69 379 0
-454 -69 -379 0
455 70 -385 0
455 -70 385 0
-455 70 385 0
-455 -70 -385 0
456 71 -391 0
456 -71 391 0
-456 71 391 0
-456 -71 -391 0
457 72 -397 0
457 -72 397 0
-457 72 397 0
-457 -72 -397 0
458 73 -403 0
458 -73 403 0
-458 73 403 0
-458 -73 -403 0
459 74 -409 0
459 -74 409 0
-459 74 409 0
-459 -74 -409 0
460 75 -415 0
460 -75 415 0
-460 75 415 0
-460 -75 -415 0
461 76 -421 0
461 -76 421 0
-461 76 421 0
-461 -76 -421 0
462 77 -427 0
462 -77 427 0
-462 77 427 0
-462 -77 -427 0
463 78 -433 0
463 -78 433 0
-463 78 433 0
-463 -78 -433 0
464 79 -439 0
464 -79 439 0
-464 79 439 0
-464 -79 -439 0
465 80 -445 0
465 -80 445 0
-465 80 445 0
-465 -80 -445 0
466 450 451 452 453 454 455 456 457 458 459 460 461 462 463 464 465 0
-466 -465 0
-466 -464 0
-466 -463 0
-466 -462 0
-466 -461 0
-466 -460 0
-466 -459 0
-466 -458 0
-466 -457 0
-466 -456 0
-466 -455 0
-466 -454 0
-466 -453 0
-466 -452 0
-466 -451 0
-466 -450 0
467 33 -341 0
467 -33 341 0
-467 33 341 0
-467 -33 -341 0
468 34 -342 0
468 -34 342 0
-468 34 342 0
-468 -34 -342 0
469 35 -343 0
469 -35 343 0
-469 35 343 0
-469 -35 -343 0
470 36 -344 0
470 -36 344 0
-470 36 344 0
-470 -36 -344 0
471 37 -345 0
471 -37 345 0
-471 37 345 0
-471 -37 -345 0
472 38 -346 0
472 -38 346 0
-472 38 346 0
-472 -38 -346 0
473 39 -347 0
473 -39 347 0
-473 39 347 0
-473 -39 -347 0
474 40 -348 0
474 -40 348 0
-474 40 348 0
-474 -40 -348 0
475 41 -349 0
475 -41 349 0
-475 41 349 0
-475 -41 -349 0
476 42 -350 0
476 -42 350 0
-476 42 350 0
-476 -42 -350 0
477 43 -351 0
477 -43 351 0
-477 43 351 0
-477 -43 -351 0
478 44 -352 0
478 -44 352 0
-478 44 352 0
-478 -44 -352 0
479 45 -353 0
479 -45 353 0
-479 45 353 0
-479 -45 -353 0
480 46 -354 0
480 -46 354 0
-480 46 354 0
-480 -46 -354 0
481 47 -355 0
481 -47 355 0
-481 47 355 0
-481 -47 -355 0
482 48 -356 0
482 -48 356 0
-482 48 356 0
-482 -48 -356 0
483 467 468 469 470 471 472 473 474 475 476 477 478 479 480 481 482 0
-483 -482 0
-483 -481 0
-483 -480 0
-483 -479 0
-483 -478 0
-483 -477 0
-483 -476 0
-483 -475 0
-483 -474 0
-483 -473 0
-483 -472 0
-483 -471 0
-483 -470 0
-483 -469 0
-483 -468 0
-483 -467 0
484 81 -341 0
484 -81 341 0
-484 81 341 0
-484 -81 -341 0
485 82 -342 0
485 -82 342 0
-485 82 342 0
-485 -82 -342 0
486 83 -343 0
486 -83 343 0
-486 83 343 0
-486 -83 -343 0
487 84 -344 0
487 -84 344 0
-487 84 344 0
-487 -84 -344 0
488 85 -345 0
488 -85 345 0
-488 85 345 0
-488 -85 -345 0
489 86 -346 0
489 -86 346 0
-489 86 346 0
-489 -86 -346 0
490 87 -347 0
490 -87 347 0
-490 87 347 0
-490 -87 -347 0
491 88 -348 0
491 -88 348 0
-491 88 348 0
-491 -88 -348 0
492 89 -349 0
492 -89 349 0
-492 89 349 0
-492 -89 -349 0
493 90 -350 0
493 -90 350 0
-493 90 350 0
-493 -90 -350 0
494 91 -351 0
494 -91 351 0
-494 91 351 0
-494 -91 -351 0
495 92 -352 0
495 -92 352 0
-495 92 352 0
-495 -92 -352 0
496 93 -353 0
496 -93 353 0
-496 93 353 0
-496 -93 -353 0
497 94 -354 0
497 -94 354 0
-497 94 354 0
-497 -94 -354 0
498 95 -355 0
498 -95 355 0
-498 95 355 0
-498 -95 -355 0
499 96 -356 0
499 -96 356 0
-499 96 356 0
-499 -96 -356 0
500 484 485 486 487 488 489 490 491 492 493 494 495 496 497 498 499 0
-500 -499 0
-500 -498 0
-500 -497 0
-500 -496 0
-500 -495 0
-500 -494 0
-500 -493 0
-500 -492 0
-500 -491 0
-500 -490 0
-500 -489 0
-500 -488 0
-500 -487 0
-500 -486 0
-500 -485 0
-500 -484 0
501 -144 -287 -306 -323 -340 -466 -483 -500 0
-501 500 0
-501 483 0
-501 466 0
-501 340 0
-501 323 0
-501 306 0
-501 287 0
-501 144 0
534 502 -518 0
-534 -502 0
-534 518 0
535 502 0
535 -518 0
535 -534 0
-535 -502 518 534 0
536 503 -519 0
-536 -503 0
-536 519 0
537 -519 -535 0
-537 535 0
-537 519 0
538 503 -535 0
-538 535 0
-538 -503 0
539 -538 0
539 -537 0
539 -536 0
-539 536 537 538 0
540 504 -520 0
-540 -504 0
-540 520 0
541 -520 -539 0
-541 539 0
-541 520 0
542 504 -539 0
-542 539 0
-542 -504 0
543 -542 0
543 -541 0
543 -540 0
-543 540 541 542 0
544 505 -521 0
-544 -505 0
-544 521 0
545 -521 -543 0
-545 543 0
-545 521 0
546 505 -543 0
-546 543 0
-546 -505 0
547 -546 0
547 -545 0
547 -544 0
-547 544 545 546 0
548 506 -522 0
-548 -506 0
-548 522 0
549 -522 -547 0
-549 547 0
-549 522 0
550 506 -547 0
-550 547 0
-550 -506 0
551 -550 0
551 -549 0
551 -548 0
-551 548 549 550 0
552 507 -523 0
-552 -507 0
-552 523 0
553 -523 -551 0
-553 551 0
-553 523 0
554 507 -551 0
-554 551 0
-554 -507 0
555 -554 0
555 -553 0
555 -552 0
-555 552 553 554 0
556 508 -524 0
-556 -508 0
-556 524 0
557 -524 -555 0
-557 555 0
-557 524 0
558 508 -555 0
-558 555 0
-558 -508 0
559 -558 0
559 -557 0
559 -556 0
-559 556 557 558 0
560 509 -525 0
-560 -509 0
-560 525 0
561 -525 -559 0
-561 559 0
-561 525 0
562 509 -559 0
-562 559 0
-562 -509 0
563 -562 0
563 -561 0
563 -560 0
-563 560 561 562 0
564 510 -526 0
-564 -510 0
-564 526 0
565 -526 -563 0
-565 563 0
-565 526 0
566 510 -563 0
-566 563 0
-566 -510 0
567 -566 0
567 -565 0
567 -564 0
-567 564 565 566 0
568 511 -527 0
-568 -511 0
-568 527 0
569 -527 -567 0
-569 567 0
-569 527 0
570 511 -567 0
-570 567 0
-570 -511 0
571 -570 0
571 -569 0
571 -568 0
-571 568 569 570 0
572 512 -528 0
-572 -512 0
-572 528 0
573 -528 -571 0
-573 571 0
-573 528 0
574 512 -571 0
-574 571 0
-574 -512 0
575 -574 0
575 -573 0
575 -572 0
-575 572 573 574 0
576 513 -529 0
-576 -513 0
-576 529 0
577 -529 -575 0
-577 575 0
-577 529 0
578 513 -575 0
-578 575 0
-578 -513 0
579 -578 0
579 -577 0
579 -576 0
-579 576 577 578 0
580 514 -530 0
-580 -514 0
-580 530 0
581 -530 -579 0
-581 579 0
-581 530 0
582 514 -579 0
-582 579 0
-582 -514 0
583 -582 0
583 -581 0
583 -580 0
-583 580 581 582 0
584 515 -531 0
-584 -515 0
-584 531 0
585 -531 -583 0
-585 583 0
-585 531 0
586 515 -583 0
-586 583 0
-586 -515 0
587 -586 0
587 -585 0
587 -584 0
-587 584 585 586 0
588 516 -532 0
-588 -516 0
-588 532 0
589 -532 -587 0
-589 587 0
-589 532 0
590 516 -587 0
-590 587 0
-590 -516 0
591 -590 0
591 -589 0
591 -588 0
-591 588 589 590 0
592 517 -533 0
-592 -517 0
-592 533 0
593 -533 -591 0
-593 591 0
-593 533 0
594 517 -591 0
-594 591 0
-594 -517 0
595 -594 0
595 -593 0
595 -592 0
-595 592 593 594 0
596 -517 533 0
596 517 -533 0
-596 517 533 0
-596 -517 -533 0
597 -595 -596 0
597 595 596 0
-597 595 -596 0
-597 -595 596 0
599 0
-599 -597 -598 0
632 600 -616 0
-632 -600 0
-632 616 0
633 600 0
633 -616 0
633 -632 0
-633 -600 616 632 0
634 601 -617 0
-634 -601 0
-634 617 0
635 -617 -633 0
-635 633 0
-635 617 0
636 601 -633 0
-636 633 0
-636 -601 0
637 -636 0
637 -635 0
637 -634 0
-637 634 635 636 0
638 602 -618 0
-638 -602 0
-638 618 0
639 -618 -637 0
-639 637 0
-639 618 0
640 602 -637 0
-640 637 0
-640 -602 0
641 -640 0
641 -639 0
641 -638 0
-641 638 639 640 0
642 603 -619 0
-642 -603 0
-642 619 0
643 -619 -641 0
-643 641 0
-643 619 0
644 603 -641 0
-644 641 0
-644 -603 0
645 -644 0
645 -643 0
645 -642 0
-645 642 643 644 0
646 604 -620 0
-646 -604 0
-646 620 0
647 -620 -645 0
-647 645 0
-647 620 0
648 604 -645 0
-648 645 0
-648 -604 0
649 -648 0
649 -647 0
649 -646 0
-649 646 647 648 0
650 605 -621 0
-650 -605 0
-650 621 0
651 -621 -649 0
-651 649 0
-651 621 0
652 605 -649 0
-652 649 0
-652 -605 0
653 -652 0
653 -651 0
653 -650 0
-653 650 651 652 0
654 606 -622 0
-654 -606 0
-654 622 0
655 -622 -653 0
-655 653 0
-655 622 0
656 606 -653 0
-656 653 0
-656 -606 0
657 -656 0
657 -655 0
657 -654 0
-657 654 655 656 0
658 607 -623 0
-658 -607 0
-658 623 0
659 -623 -657 0
-659 657 0
-659 623 0
660 607 -657 0
-660 657 0
-660 -607 0
661 -660 0
661 -659 0
661 -658 0
-661 658 659 660 0
662 608 -624 0
-662 -608 0
-662 624 0
663 -624 -661 0
-663 661 0
-663 624 0
664 608 -661 0
-664 661 0
-664 -608 0
665 -664 0
665 -663 0
665 -662 0
-665 662 663 664 0
666 609 -625 0
-666 -609 0
-666 625 0
667 -625 -665 0
-667 665 0
-667 625 0
668 609 -665 0
-668 665 0
-668 -609 0
669 -668 0
669 -667 0
669 -666 0
-669 666 667 668 0
670 610 -626 0
-670 -610 0
-670 626 0
671 -626 -669 0
-671 669 0
-671 626 0
672 610 -669 0
-672 669 0
-672 -610 0
673 -672 0
673 -671 0
673 -670 0
-673 670 671 672 0
674 611 -627 0
-674 -611 0
-674 627 0
675 -627 -673 0
-675 673 0
-675 627 0
676 611 -673 0
-676 673 0
-676 -611 0
677 -676 0
677 -675 0
677 -674 0
-677 674 675 676 0
678 612 -628 0
-678 -612 0
-678 628 0
679 -628 -677 0
-679 677 0
-679 628 0
680 612 -677 0
-680 677 0
-680 -612 0
681 -680 0
681 -679 0
681 -678 0
-681 678 679 680 0
682 613 -629 0
-682 -613 0
-682 629 0
683 -629 -681 0
-683 681 0
-683 629 0
684 613 -681 0
-684 681 0
-684 -613 0
685 -684 0
685 -683 0
685 -682 0
-685 682 683 684 0
686 614 -630 0
-686 -614 0
-686 630 0
687 -630 -685 0
-687 685 0
-687 630 0
688 614 -685 0
-688 685 0
-688 -614 0
689 -688 0
689 -687 0
689 -686 0
-689 686 687 688 0
690 615 -631 0
-690 -615 0
-690 631 0
691 -631 -689 0
-691 689 0
-691 631 0
692 615 -689 0
-692 689 0
-692 -615 0
693 -692 0
693 -691 0
693 -690 0
-693 690 691 692 0
694 -615 631 0
694 615 -631 0
-694 615 631 0
-694 -615 -631 0
695 -693 -694 0
695 693 694 0
-695 693 -694 0
-695 -693 694 0
697 0
-697 -695 -696 0
730 698 -714 0
-730 -698 0
-730 714 0
731 698 0
731 -714 0
731 -730 0
-731 -698 714 730 0
732 699 -715 0
-732 -699 0
-732 715 0
733 -715 -731 0
-733 731 0
-733 715 0
734 699 -731 0
-734 731 0
-734 -699 0
735 -734 0
735 -733 0
735 -732 0
-735 732 733 734 0
736 700 -716 0
-736 -700 0
-736 716 0
737 -716 -735 0
-737 735 0
-737 716 0
738 700 -735 0
-738 735 0
-738 -700 0
739 -738 0
739 -737 0
739 -736 0
-739 736 737 738 0
740 701 -717 0
-740 -701 0
-740 717 0
741 -717 -739 0
-741 739 0
-741 717 0
742 701 -739 0
-742 739 0
-742 -701 0
743 -742 0
743 -741 0
743 -740 0
-743 740 741 742 0
744 702 -718 0
-744 -702 0
-744 718 0
745 -718 -743 0
-745 743 0
-745 718 0
746 702 -743 0
-746 743 0
-746 -702 0
747 -746 0
747 -745 0
747 -744 0
-747 744 745 746 0
748 703 -719 0
-748 -703 0
-748 719 0
749 -719 -747 0
-749 747 0
-749 719 0
750 703 -747 0
-750 747 0
-750 -703 0
751 -750 0
751 -749 0
751 -748 0
-751 748 749 750 0
752 704 -720 0
-752 -704 0
-752 720 0
753 -720 -751 0
-753 751 0
-753 720 0
754 704 -751 0
-754 751 0
-754 -704 0
755 -754 0
755 -753 0
755 -752 0
-755 752 753 754 0
756 705 -721 0
-756 -705 0
-756 721 0
757 -721 -755 0
-757 755 0
-757 721 0
758 705 -755 0
-758 755 0
-758 -705 0
759 -758 0
759 -757 0
759 -756 0
-759 756 757 758 0
760 706 -722 0
-760 -706 0
-760 722 0
761 -722 -759 0
-761 759 0
-761 722 0
762 706 -759 0
-762 759 0
-762 -706 0
763 -762 0
763 -761 0
763 -760 0
-763 760 761 762 0
764 707 -723 0
-764 -707 0
-764 723 0
765 -723 -763 0
-765 763 0
-765 723 0
766 707 -763 0
-766 763 0
-766 -707 0
767 -766 0
767 -765 0
767 -764 0
-767 764 765 766 0
768 708 -724 0
-768 -708 0
-768 724 0
769 -724 -767 0
-769 767 0
-769 724 0
770 708 -767 0
-770 767 0
-770 -708 0
771 -770 0
771 -769 0
771 -768 0
-771 768 769 770 0
772 709 -725 0
-772 -709 0
-772 725 0
773 -725 -771 0
-773 771 0
-773 725 0
774 709 -771 0
-774 771 0
-774 -709 0
775 -774 0
775 -773 0
775 -772 0
-775 772 773 774 0
776 710 -726 0
-776 -710 0
-776 726 0
777 -726 -775 0
-777 775 0
-777 726 0
778 710 -775 0
-778 775 0
-778 -710 0
779 -778 0
779 -777 0
779 -776 0
-779 776 777 778 0
780 711 -727 0
-780 -711 0
-780 727 0
781 -727 -779 0
-781 779 0
-781 727 0
782 711 -779 0
-782 779 0
-782 -711 0
783 -782 0
783 -781 0
783 -780 0
-783 780 781 782 0
784 712 -728 0
-784 -712 0
-784 728 0
785 -728 -783 0
-785 783 0
-785 728 0
786 712 -783 0
-786 783 0
-786 -712 0
787 -786 0
787 -785 0
787 -784 0
-787 784 785 786 0
788 713 -729 0
-788 -713 0
-788 729 0
789 -729 -787 0
-789 787 0
-789 729 0
790 713 -787 0
-790 787 0
-790 -713 0
791 -790 0
791 -789 0
791 -788 0
-791 788 789 790 0
792 -713 729 0
792 713 -729 0
-792 713 729 0
-792 -713 -729 0
793 -791 -792 0
793 791 792 0
-793 791 -792 0
-793 -791 792 0
795 0
-795 -793 -794 0
796 -501 0
796 -597 -695 -793 0
-796 793 0
-796 695 0
-796 597 0
797 1 -49 0
797 -1 49 0
-797 1 49 0
-797 -1 -49 0
798 2 -50 0
798 -2 50 0
-798 2 50 0
-798 -2 -50 0
799 3 -51 0
799 -3 51 0
-799 3 51 0
-799 -3 -51 0
800 4 -52 0
800 -4 52 0
-800 4 52 0
-800 -4 -52 0
801 5 -53 0
801 -5 53 0
-801 5 53 0
-801 -5 -53 0
802 6 -54 0
802 -6 54 0
-802 6 54 0
-802 -6 -54 0
803 7 -55 0
803 -7 55 0
-803 7 55 0
-803 -7 -55 0
804 8 -56 0
804 -8 56 0
-804 8 56 0
-804 -8 -56 0
805 9 -57 0
805 -9 57 0
-805 9 57 0
-805 -9 -57 0
806 10 -58 0
806 -10 58 0
-806 10 58 0
-806 -10 -58 0
807 11 -59 0
807 -11 59 0
-807 11 59 0
-807 -11 -59 0
808 12 -60 0
808 -12 60 0
-808 12 60 0
-808 -12 -60 0
809 13 -61 0
809 -13 61 0
-809 13 61 0
-809 -13 -61 0
810 14 -62 0
810 -14 62 0
-810 14 62 0
-810 -14 -62 0
811 15 -63 0
811 -15 63 0
-811 15 63 0
-811 -15 -63 0
812 16 -64 0
812 -16 64 0
-812 16 64 0
-812 -16 -64 0
813 797 798 799 800 801 802 803 804 805 806 807 808 809 810 811 812 0
-813 -812 0
-813 -811 0
-813 -810 0
-813 -809 0
-813 -808 0
-813 -807 0
-813 -806 0
-813 -805 0
-813 -804 0
-813 -803 0
-813 -802 0
-813 -801 0
-813 -800 0
-813 -799 0
-813 -798 0
-813 -797 0
814 502 -518 0
814 -502 518 0
-814 502 518 0
-814 -502 -518 0
815 503 -519 0
815 -503 519 0
-815 503 519 0
-815 -503 -519 0
816 504 -520 0
816 -504 520 0
-816 504 520 0
-816 -504 -520 0
817 505 -521 0
817 -505 521 0
-817 505 521 0
-817 -505 -521 0
818 506 -522 0
818 -506 522 0
-818 506 522 0
-818 -506 -522 0
819 507 -523 0
819 -507 523 0
-819 507 523 0
-819 -507 -523 0
820 508 -524 0
820 -508 524 0
-820 508 524 0
-820 -508 -524 0
821 509 -525 0
821 -509 525 0
-821 509 525 0
-821 -509 -525 0
822 510 -526 0
822 -510 526 0
-822 510 526 0
-822 -510 -526 0
823 511 -527 0
823 -511 527 0
-823 511 527 0
-823 -511 -527 0
824 512 -528 0
824 -512 528 0
-824 512 528 0
-824 -512 -528 0
825 513 -529 0
825 -513 529 0
-825 513 529 0
-825 -513 -529 0
826 514 -530 0
826 -514 530 0
-826 514 530 0
-826 -514 -530 0
827 515 -531 0
827 -515 531 0
-827 515 531 0
-827 -515 -531 0
828 516 -532 0
828 -516 532 0
-828 516 532 0
-828 -516 -532 0
829 517 -533 0
829 -517 533 0
-829 517 533 0
-829 -517 -533 0
830 -813 0
830 814 815 816 817 818 819 820 821 822 823 824 825 826 827 828 829 0
-830 -829 0
-830 -828 0
-830 -827 0
-830 -826 0
-830 -825 0
-830 -824 0
-830 -823 0
-830 -822 0
-830 -821 0
-830 -820 0
-830 -819 0
-830 -818 0
-830 -817 0
-830 -816 0
-830 -815 0
-830 -814 0
831 17 -65 0
831 -17 65 0
-831 17 65 0
-831 -17 -65 0
832 18 -66 0
832 -18 66 0
-832 18 66 0
-832 -18 -66 0
833 19 -67 0
833 -19 67 0
-833 19 67 0
-833 -19 -67 0
834 20 -68 0
834 -20 68 0
-834 20 68 0
-834 -20 -68 0
835 21 -69 0
835 -21 69 0
-835 21 69 0
-835 -21 -69 0
836 22 -70 0
836 -22 70 0
-836 22 70 0
-836 -22 -70 0
837 23 -71 0
837 -23 71 0
-837 23 71 0
-837 -23 -71 0
838 24 -72 0
838 -24 72 0
-838 24 72 0
-838 -24 -72 0
839 25 -73 0
839 -25 73 0
-839 25 73 0
-839 -25 -73 0
840 26 -74 0
840 -26 74 0
-840 26 74 0
-840 -26 -74 0
841 27 -75 0
841 -27 75 0
-841 27 75 0
-841 -27 -75 0
842 28 -76 0
842 -28 76 0
-842 28 76 0
-842 -28 -76 0
843 29 -77 0
843 -29 77 0
-843 29 77 0
-843 -29 -77 0
844 30 -78 0
844 -30 78 0
-844 30 78 0
-844 -30 -78 0
845 31 -79 0
845 -31 79 0
-845 31 79 0
-845 -31 -79 0
846 32 -80 0
846 -32 80 0
-846 32 80 0
-846 -32 -80 0
847 831 832 833 834 835 836 837 838 839 840 841 842 843 844 845 846 0
-847 -846 0
-847 -845 0
-847 -844 0
-847 -843 0
-847 -842 0
-847 -841 0
-847 -840 0
-847 -839 0
-847 -838 0
-847 -837 0
-847 -836 0
-847 -835 0
-847 -834 0
-847 -833 0
-847 -832 0
-847 -831 0
848 600 -616 0
848 -600 616 0
-848 600 616 0
-848 -600 -616 0
849 601 -617 0
849 -601 617 0
-849 601 617 0
-849 -601 -617 0
850 602 -618 0
850 -602 618 0
-850 602 618 0
-850 -602 -618 0
851 603 -619 0
851 -603 619 0
-851 603 619 0
-851 -603 -619 0
852 604 -620 0
852 -604 620 0
-852 604 620 0
-852 -604 -620 0
853 605 -621 0
853 -605 621 0
-853 605 621 0
-853 -605 -621 0
854 606 -622 0
854 -606 622 0
-854 606 622 0
-854 -606 -622 0
855 607 -623 0
855 -607 623 0
-855 607 623 0
-855 -607 -623 0
856 608 -624 0
856 -608 624 0
-856 608 624 0
-856 -608 -624 0
857 609 -625 0
857 -609 625 0
-857 609 625 0
-857 -609 -625 0
858 610 -626 0
858 -610 626 0
-858 610 626 0
-858 -610 -626 0
859 611 -627 0
859 -611 627 0
-859 611 627 0
-859 -611 -627 0
860 612 -628 0
860 -612 628 0
-860 612 628 0
-860 -612 -628 0
861 613 -629 0
861 -613 629 0
-861 613 629 0
-861 -613 -629 0
862 614 -630 0
862 -614 630 0
-862 614 630 0
-862 -614 -630 0
863 615 -631 0
863 -615 631 0
-863 615 631 0
-863 -615 -631 0
864 -847 0
864 848 849 850 851 852 853 854 855 856 857 858 859 860 861 862 863 0
-864 -863 0
-864 -862 0
-864 -861 0
-864 -860 0
-864 -859 0
-864 -858 0
-864 -857 0
-864 -856 0
-864 -855 0
-864 -854 0
-864 -853 0
-864 -852 0
-864 -851 0
-864 -850 0
-864 -849 0
-864 -848 0
865 33 -81 0
865 -33 81 0
-865 33 81 0
-865 -33 -81 0
866 34 -82 0
866 -34 82 0
-866 34 82 0
-866 -34 -82 0
867 35 -83 0
867 -35 83 0
-867 35 83 0
-867 -35 -83 0
868 36 -84 0
868 -36 84 0
-868 36 84 0
-868 -36 -84 0
869 37 -85 0
869 -37 85 0
-869 37 85 0
-869 -37 -85 0
870 38 -86 0
870 -38 86 0
-870 38 86 0
-870 -38 -86 0
871 39 -87 0
871 -39 87 0
-871 39 87 0
-871 -39 -87 0
872 40 -88 0
872 -40 88 0
-872 40 88 0
-872 -40 -88 0
873 41 -89 0
873 -41 89 0
-873 41 89 0
-873 -41 -89 0
874 42 -90 0
874 -42 90 0
-874 42 90 0
-874 -42 -90 0
875 43 -91 0
875 -43 91 0
-875 43 91 0
-875 -43 -91 0
876 44 -92 0
876 -44 92 0
-876 44 92 0
-876 -44 -92 0
877 45 -93 0
877 -45 93 0
-877 45 93 0
-877 -45 -93 0
878 46 -94 0
878 -46 94 0
-878 46 94 0
-878 -46 -94 0
879 47 -95 0
879 -47 95 0
-879 47 95 0
-879 -47 -95 0
880 48 -96 0
880 -48 96 0
-880 48 96 0
-880 -48 -96 0
881 865 866 867 868 869 870 871 872 873 874 875 876 877 878 879 880 0
-881 -880 0
-881 -879 0
-881 -878 0
-881 -877 0
-881 -876 0
-881 -875 0
-881 -874 0
-881 -873 0
-881 -872 0
-881 -871 0
-881 -870 0
-881 -869 0
-881 -868 0
-881 -867 0
-881 -866 0
-881 -865 0
882 698 -714 0
882 -698 714 0
-882 698 714 0
-882 -698 -714 0
883 699 -715 0
883 -699 715 0
-883 699 715 0
-883 -699 -715 0
884 700 -716 0
884 -700 716 0
-884 700 716 0
-884 -700 -716 0
885 701 -717 0
885 -701 717 0
-885 701 717 0
-885 -701 -717 0
886 702 -718 0
886 -702 718 0
-886 702 718 0
-886 -702 -718 0
887 703 -719 0
887 -703 719 0
-887 703 719 0
-887 -703 -719 0
888 704 -720 0
888 -704 720 0
-888 704 720 0
-888 -704 -720 0
889 705 -721 0
889 -705 721 0
-889 705 721 0
-889 -705 -721 0
890 706 -722 0
890 -706 722 0
-890 706 722 0
-890 -706 -722 0
891 707 -723 0
891 -707 723 0
-891 707 723 0
-891 -707 -723 0
892 708 -724 0
892 -708 724 0
-892 708 724 0
-892 -708 -724 0
893 709 -725 0
893 -709 725 0
-893 709 725 0
-893 -709 -725 0
894 710 -726 0
894 -710 726 0
-894 710 726 0
-894 -710 -726 0
895 711 -727 0
895 -711 727 0
-895 711 727 0
-895 -711 -727 0
896 712 -728 0
896 -712 728 0
-896 712 728 0
-896 -712 -728 0
897 713 -729 0
897 -713 729 0
-897 713 729 0
-897 -713 -729 0
898 -881 0
898 882 883 884 885 886 887 888 889 890 891 892 893 894 895 896 897 0
-898 -897 0
-898 -896 0
-898 -895 0
-898 -894 0
-898 -893 0
-898 -892 0
-898 -891 0
-898 -890 0
-898 -889 0
-898 -888 0
-898 -887 0
-898 -886 0
-898 -885 0
-898 -884 0
-898 -883 0
-898 -882 0
